c Random generated cnf formula, satisfiable: true
p cnf 10 50
-8 6 -3 0
5 -1 10 0
-1 9 8 0
-9 8 -4 0
-4 7 1 0
-7 6 -9 0
-8 -5 7 0
-5 7 -6 0
-6 3 -7 0
-2 6 -5 0
-6 -10 -7 0
-8 -6 -9 0
-7 6 -4 0
5 -8 3 0
10 3 -6 0
10 2 -7 0
7 9 5 0
-3 -8 2 0
8 -1 -10 0
5 -6 -3 0
1 7 9 0
-7 5 -3 0
10 4 1 0
-7 -4 5 0
-5 10 3 0
-4 2 -6 0
9 5 2 0
-9 8 -7 0
-10 -8 2 0
-4 1 6 0
5 7 -9 0
1 -8 5 0
3 9 7 0
3 5 -1 0
-4 -1 8 0
-8 5 3 0
2 -7 10 0
-3 7 2 0
9 8 3 0
-3 -2 8 0
6 -1 -4 0
2 -10 -8 0
9 6 -2 0
-7 -8 -9 0
4 -8 -3 0
-6 5 -1 0
-7 -10 -9 0
10 -6 -7 0
-9 -6 7 0
5 3 2 0
